Minimize
  obj: x0 + x1 + x2 + x3 + x4

Subject To
  c0: x2 + x3 = 31
  c1: x2 + x4 = 17
  c2: x0 + x3 + x4 = 41
  c3: x0 + x1 + x3 + x4 = 44
  c4: x0 + x1 + x3 = 40

Bounds
  x0 >= 0
  x1 >= 0
  x2 >= 0
  x3 >= 0
  x4 >= 0

Generals
  x0 x1 x2 x3 x4

End
